AME : levi30_3
COMMENT : 30: 30x24 -city problem (levikoppenhol)
TYPE : TSP
DIMENSION : 30
EDGE_WEIGHT_TYPE : EUC_2D
NODE_COORD_SECTION
1 3 29
2 13 10
3 17 19
4 1 6
5 2 15
6 17 14
7 8 9
8 18 2
9 3 22
10 17 23
11 21 14
12 5 22
13 15 1
14 14 11
15 3 19
16 15 29
17 15 19
18 8 25
19 20 16
20 14 15
21 15 27
22 9 26
23 20 13
24 15 4
25 1 30
26 8 1
27 23 0
28 10 11
29 7 3
30 9 12
EOF